\ LP format - for model browsing. Use MPS format to capture full model detail.
Minimize
  0 x[0,0] + 0 b_a_2[0,0] + 0 b_a_3[0,0] + 0 b_a_4[0,0] + 0 b_a_5[0,0]
   + 0 b_a_6[0,0] + 0 b_a_7[0,0] + 0 b_a_8[0,0] + 0 b_a_9[0,0]
   + 0 b_a_15[0,0] + 0 b_a_20[0,0] + 0 b_a_21[0,0] + 0 b_a_27[0,0]
   + 0 b_a_28[0,0] + 0 b_a_29[0,0] + 0 b_g_36[0,0] + 0 b_g_37[0,0]
   + 0 b_g_38[0,0] + 0 b_g_39[0,0]
Subject To
 R0: b_a >= 0
 R1: b_a_1[0,0] = -10000
 R2: b_a_10[0,0] = 10000
 R3: b_a_11[0,0] = 10000
 R4: b_a_12[0,0] - 1.644853626951472 b_a_12_sigma = -0.2001
 R5: b_a_14[0,0] = 10000
 R6: b_a_16[0,0] - 1.644853626951472 b_a_16_sigma = -0.2001
 R7: b_a_18[0,0] - 1.2815515655446 b_a_18_sigma = -0.1001
 R8: b_a_19[0,0] = 10000
 R9: b_a_22[0,0] - 1.644853626951472 b_a_22_sigma = -0.2001
 R10: b_a_24[0,0] - 1.2815515655446 b_a_24_sigma = -0.1001
 R11: b_a_25[0,0] - 1.2815515655446 b_a_25_sigma = -0.1001
 R12: b_a_26[0,0] = 10000
 R13: b_a_30[0,0] - 1.644853626951472 b_a_30_sigma = -0.2001
 R14: b_a_32[0,0] - 1.2815515655446 b_a_32_sigma = -0.1001
 R15: b_a_33[0,0] - 1.2815515655446 b_a_33_sigma = -0.1001
 R16: b_a_34[0,0] - 1.2815515655446 b_a_34_sigma = -0.1001
 R17: b_g_40[0,0] + 1.644853626951472 b_g_40_sigma = 0.2
 R18: b_g_42[0,0] + 1.2815515655446 b_g_42_sigma = 0.1
 R19: b_g_43[0,0] + 1.2815515655446 b_g_43_sigma = 0.1
 R20: b_g_44[0,0] + 1.2815515655446 b_g_44_sigma = 0.1
 R21: b_g_45[0,0] + 2.326347874040841 b_g_45_sigma = 0.25
 UNSAT: b_g >= 0
 qc0: b_a_12_variance + [ ] = 0.0004
 qc1: b_a_13_variance + [ - sigma2 ^2 ] = 0
 qc2: b_a_13[0,0] + 8.323906481710264 b_a_13_sigma + [
   - 10.4914084377381 p * b_a_13_sigma ] = -0.1001
 qc3: b_a_16_variance + [ ] = 0.0004
 qc4: b_a_17_variance + [ - sigma2 ^2 ] = 0
 qc5: b_a_17[0,0] + 8.323906481710264 b_a_17_sigma + [
   - 10.4914084377381 p * b_a_17_sigma ] = -0.1001
 qc6: b_a_18_variance + [ ] = 0.0004
 qc7: b_a_22_variance + [ ] = 0.0004
 qc8: b_a_23_variance + [ - sigma2 ^2 ] = 0
 qc9: b_a_23[0,0] + 8.323906481710264 b_a_23_sigma + [
   - 10.4914084377381 p * b_a_23_sigma ] = -0.1001
 qc10: b_a_24_variance + [ ] = 0.0004
 qc11: b_a_25_variance + [ ] = 0.0004
 qc12: b_a_30_variance + [ ] = 0.0004
 qc13: b_a_31_variance + [ - sigma2 ^2 ] = 0
 qc14: b_a_31[0,0] + 8.323906481710264 b_a_31_sigma + [
   - 10.4914084377381 p * b_a_31_sigma ] = -0.1001
 qc15: b_a_32_variance + [ ] = 0.0004
 qc16: b_a_33_variance + [ ] = 0.0004
 qc17: b_a_34_variance + [ ] = 0.0004
 qc18: b_g_40_variance + [ ] = 0.0004
 qc19: b_g_41_variance + [ - sigma2 ^2 ] = 0
 qc20: b_g_41[0,0] - 8.32669846731125 b_g_41_sigma + [
   10.49457121582656 p * b_g_41_sigma ] = 0.1
 qc21: b_g_42_variance + [ ] = 0.0004
 qc22: b_g_43_variance + [ ] = 0.0004
 qc23: b_g_44_variance + [ ] = 0.0004
 qc24: b_g_45_variance + [ - sigma2 ^2 ] = 0.0016
Bounds
 x[0,0] <= 500
 0.953125 <= p <= 0.95625
 0.05984375 <= sigma2 <= 0.064375
 -10000 <= b_a <= 10000
 -10000 <= b_a_1[0,0] <= 10000
 -10000 <= b_a_2[0,0] <= 10000
 -10000 <= b_a_3[0,0] <= 10000
 -10000 <= b_a_4[0,0] <= 10000
 -10000 <= b_a_5[0,0] <= 10000
 -10000 <= b_a_6[0,0] <= 10000
 -10000 <= b_a_7[0,0] <= 10000
 -10000 <= b_a_8[0,0] <= 10000
 -10000 <= b_a_9[0,0] <= 10000
 -10000 <= b_a_10[0,0] <= 10000
 -10000 <= b_a_11[0,0] <= 10000
 -10000 <= b_a_12[0,0] <= 10000
 b_a_12_variance <= 10000
 b_a_12_sigma <= 10000
 -10000 <= b_a_13[0,0] <= 10000
 b_a_13_variance <= 10000
 b_a_13_sigma <= 10000
 -10000 <= b_a_14[0,0] <= 10000
 -10000 <= b_a_15[0,0] <= 10000
 -10000 <= b_a_16[0,0] <= 10000
 b_a_16_variance <= 10000
 b_a_16_sigma <= 10000
 -10000 <= b_a_17[0,0] <= 10000
 b_a_17_variance <= 10000
 b_a_17_sigma <= 10000
 -10000 <= b_a_18[0,0] <= 10000
 b_a_18_variance <= 10000
 b_a_18_sigma <= 10000
 -10000 <= b_a_19[0,0] <= 10000
 -10000 <= b_a_20[0,0] <= 10000
 -10000 <= b_a_21[0,0] <= 10000
 -10000 <= b_a_22[0,0] <= 10000
 b_a_22_variance <= 10000
 b_a_22_sigma <= 10000
 -10000 <= b_a_23[0,0] <= 10000
 b_a_23_variance <= 10000
 b_a_23_sigma <= 10000
 -10000 <= b_a_24[0,0] <= 10000
 b_a_24_variance <= 10000
 b_a_24_sigma <= 10000
 -10000 <= b_a_25[0,0] <= 10000
 b_a_25_variance <= 10000
 b_a_25_sigma <= 10000
 -10000 <= b_a_26[0,0] <= 10000
 -10000 <= b_a_27[0,0] <= 10000
 -10000 <= b_a_28[0,0] <= 10000
 -10000 <= b_a_29[0,0] <= 10000
 -10000 <= b_a_30[0,0] <= 10000
 b_a_30_variance <= 10000
 b_a_30_sigma <= 10000
 -10000 <= b_a_31[0,0] <= 10000
 b_a_31_variance <= 10000
 b_a_31_sigma <= 10000
 -10000 <= b_a_32[0,0] <= 10000
 b_a_32_variance <= 10000
 b_a_32_sigma <= 10000
 -10000 <= b_a_33[0,0] <= 10000
 b_a_33_variance <= 10000
 b_a_33_sigma <= 10000
 -10000 <= b_a_34[0,0] <= 10000
 b_a_34_variance <= 10000
 b_a_34_sigma <= 10000
 -10000 <= b_g <= 10000
 -10000 <= b_g_36[0,0] <= 10000
 -10000 <= b_g_37[0,0] <= 10000
 -10000 <= b_g_38[0,0] <= 10000
 -10000 <= b_g_39[0,0] <= 10000
 -10000 <= b_g_40[0,0] <= 10000
 b_g_40_variance <= 10000
 b_g_40_sigma <= 10000
 -10000 <= b_g_41[0,0] <= 10000
 b_g_41_variance <= 10000
 b_g_41_sigma <= 10000
 -10000 <= b_g_42[0,0] <= 10000
 b_g_42_variance <= 10000
 b_g_42_sigma <= 10000
 -10000 <= b_g_43[0,0] <= 10000
 b_g_43_variance <= 10000
 b_g_43_sigma <= 10000
 -10000 <= b_g_44[0,0] <= 10000
 b_g_44_variance <= 10000
 b_g_44_sigma <= 10000
 -10000 <= b_g_45[0,0] <= 10000
 b_g_45_variance <= 10000
 b_g_45_sigma <= 10000
General Constraints
 GC0: b_a_9[0,0] = MIN ( b_a_10[0,0] , b_a_11[0,0] )
 GC1: b_a_12_sigma = POW ( b_a_12_variance ^ 0.5 )
 GC2: b_a_13_sigma = POW ( b_a_13_variance ^ 0.5 )
 GC3: b_a_8[0,0] = MAX ( b_a_9[0,0] , b_a_12[0,0] , b_a_13[0,0] )
 GC4: b_a_7[0,0] = MIN ( b_a_8[0,0] , b_a_14[0,0] )
 GC5: b_a_16_sigma = POW ( b_a_16_variance ^ 0.5 )
 GC6: b_a_17_sigma = POW ( b_a_17_variance ^ 0.5 )
 GC7: b_a_15[0,0] = MAX ( b_a_16[0,0] , b_a_17[0,0] )
 GC8: b_a_18_sigma = POW ( b_a_18_variance ^ 0.5 )
 GC9: b_a_6[0,0] = MAX ( b_a_7[0,0] , b_a_15[0,0] , b_a_18[0,0] )
 GC10: b_a_5[0,0] = MIN ( b_a_6[0,0] , b_a_19[0,0] )
 GC11: b_a_22_sigma = POW ( b_a_22_variance ^ 0.5 )
 GC12: b_a_23_sigma = POW ( b_a_23_variance ^ 0.5 )
 GC13: b_a_21[0,0] = MAX ( b_a_22[0,0] , b_a_23[0,0] )
 GC14: b_a_24_sigma = POW ( b_a_24_variance ^ 0.5 )
 GC15: b_a_20[0,0] = MAX ( b_a_21[0,0] , b_a_24[0,0] )
 GC16: b_a_25_sigma = POW ( b_a_25_variance ^ 0.5 )
 GC17: b_a_4[0,0] = MAX ( b_a_5[0,0] , b_a_20[0,0] , b_a_25[0,0] )
 GC18: b_a_3[0,0] = MIN ( b_a_4[0,0] , b_a_26[0,0] )
 GC19: b_a_30_sigma = POW ( b_a_30_variance ^ 0.5 )
 GC20: b_a_31_sigma = POW ( b_a_31_variance ^ 0.5 )
 GC21: b_a_29[0,0] = MAX ( b_a_30[0,0] , b_a_31[0,0] )
 GC22: b_a_32_sigma = POW ( b_a_32_variance ^ 0.5 )
 GC23: b_a_28[0,0] = MAX ( b_a_29[0,0] , b_a_32[0,0] )
 GC24: b_a_33_sigma = POW ( b_a_33_variance ^ 0.5 )
 GC25: b_a_27[0,0] = MAX ( b_a_28[0,0] , b_a_33[0,0] )
 GC26: b_a_34_sigma = POW ( b_a_34_variance ^ 0.5 )
 GC27: b_a_2[0,0] = MAX ( b_a_3[0,0] , b_a_27[0,0] , b_a_34[0,0] )
 GC28: b_a = MAX ( b_a_1[0,0] , b_a_2[0,0] )
 GC29: b_g_40_sigma = POW ( b_g_40_variance ^ 0.5 )
 GC30: b_g_41_sigma = POW ( b_g_41_variance ^ 0.5 )
 GC31: b_g_39[0,0] = MIN ( b_g_40[0,0] , b_g_41[0,0] )
 GC32: b_g_42_sigma = POW ( b_g_42_variance ^ 0.5 )
 GC33: b_g_38[0,0] = MIN ( b_g_39[0,0] , b_g_42[0,0] )
 GC34: b_g_43_sigma = POW ( b_g_43_variance ^ 0.5 )
 GC35: b_g_37[0,0] = MIN ( b_g_38[0,0] , b_g_43[0,0] )
 GC36: b_g_44_sigma = POW ( b_g_44_variance ^ 0.5 )
 GC37: b_g_36[0,0] = MIN ( b_g_37[0,0] , b_g_44[0,0] )
 GC38: b_g_45_sigma = POW ( b_g_45_variance ^ 0.5 )
 GC39: b_g = MIN ( b_g_36[0,0] , b_g_45[0,0] )
End
